(set-info :source  loris-7.ddns.comp.nus.edu.sg/~project/hip/) 
;Variables declarations
(declare-fun bhr_16325 () Int)
(declare-fun l_16320 () Int)
(declare-fun l_15071 () Int)
(declare-fun bhl_15073 () Int)
(declare-fun bhr_15076 () Int)
(declare-fun bh_14955 () Int)
(declare-fun bh () Int)
(declare-fun bhl_14919 () Int)
(declare-fun Anon_14922 () Int)
(declare-fun bhr_14923 () Int)
(declare-fun r_14920 () Int)
(declare-fun n () Int)
(declare-fun nr_14921 () Int)
(declare-fun nl_14917 () Int)
(declare-fun n_14953 () Int)
(declare-fun nl_15072 () Int)
(declare-fun nr_15075 () Int)
(declare-fun flted_381_16316 () Int)
(declare-fun nr_16324 () Int)
(declare-fun nl_16321 () Int)
;Relations declarations
;Axioms assertions
;Antecedent
(assert (= bhr_16325 bhr_15076))
(assert (< l_15071 1))
(assert (= bhl_15073 1))
(assert (= l_16320 l_15071))
(assert (or (= nl_15072 0) (< l_15071 1)))
(assert (= bhl_15073 bh_14955))
(assert (= bhr_15076 bh_14955))
(assert (<= 1 bh_14955))
(assert (<= 1 bhl_14919))
(assert (<= 0 nl_14917))
(assert (= bh_14955 bhl_14919))
(assert (= bh (+ bhl_14919 1)))
(assert (= bhl_14919 bhr_14923))
(assert (< r_14920 1))
(assert (or (and (and (and (= Anon_14922 0) (<= 2 bhr_14923)) (<= 1 nr_14921)) (> r_14920 0)) (or (and (and (and (< r_14920 1) (= nr_14921 0)) (= bhr_14923 1)) (= Anon_14922 0)) (and (and (and (= Anon_14922 1) (<= 1 bhr_14923)) (<= 1 nr_14921)) (> r_14920 0)))))
(assert (= nl_15072 0))
(assert (= n (+ (+ nr_14921 1) nl_14917)))
(assert (= n_14953 nl_14917))
(assert (<= 0 n_14953))
(assert (= n_14953 (+ (+ nr_15075 1) nl_15072)))
(assert (= nr_16324 nr_15075))
;Negation of Consequence
(assert (not (= flted_381_16316 (+ (+ nr_16324 1) nl_16321))))
(check-sat)